n_res = 5;
n_events = 52;
n_prec = 167;
source = 1;
sink = 52;
min_lvl = [-3, -2, -10, 0, -7];
max_lvl = [5, 3, 1, 7, 2];
rr = [| 0, -1, 0, 2, 0, 0, -2, 0, -2, -1, 0, 1, 0, 0, 0, -1, -1, -1, 0, 2, 1, 0, -2, 0, 2, 1, 0, 1, 0, 2, -2, 0, -2, 1, -2, 2, 0, 0, 2, -1, 0, 1, 0, -2, 0, 2, -1, 0, -2, 2, 0, 0
      | 0, -1, 0, 1, 0, -1, -2, -1, -2, 2, 0, -2, -2, 0, 1, 0, 0, 2, -2, 1, -2, 0, 0, 0, 1, -1, 2, -2, 2, 0, 1, 2, 1, 0, 0, 0, 0, 0, 2, -2, -1, 0, 2, 1, -1, 2, 1, -1, 0, 1, 0, 0
      | 0, 0, -1, 0, 2, 0, 0, -1, 1, -2, 0, -2, 2, 0, 0, -1, 0, 2, 0, 0, 0, 1, 0, -1, 2, 1, 1, 0, 0, 0, -1, -2, -2, -1, 0, 0, 2, 1, 1, 0, 0, -2, 0, 0, -2, 0, -2, -2, 2, 0, 0, 0
      | 0, 0, 1, 2, -1, 0, 2, 0, 1, 0, 2, 0, -1, 0, -2, 1, 0, -1, 0, 0, 0, 0, 0, 2, -1, -1, 0, -2, 0, 1, 2, 0, -2, -2, 1, -2, 0, -2, 0, -1, 1, -2, 0, 2, -1, 1, 2, 2, 0, 0, -1, 0
      | 0, -1, 0, 0, -1, 0, -1, 1, 2, 1, -2, 1, -1, 0, 0, 2, -1, 0, 1, 0, 0, 0, 0, 2, -1, 0, 0, 1, 1, 1, -1, 0, 0, -2, -1, 0, 0, 0, 0, -1, 0, 2, 0, 1, -2, -1, 2, -2, 0, -1, 1, 0 |];
prec = [| 1, 0, 4
        | 1, 0, 2
        | 1, 0, 9
        | 1, 0, 32
        | 1, 0, 3
        | 1, 0, 5
        | 1, 0, 34
        | 1, 0, 44
        | 2, 0, 43
        | 2, 0, 50
        | 3, 2, 11
        | 3, 9, 47
        | 3, 9, 31
        | 4, 13, 45
        | 4, 0, 6
        | 4, 0, 48
        | 5, 2, 10
        | 5, -1, 21
        | 5, -1, 44
        | 6, -5, 15
        | 7, -52, 29
        | 7, 1, 28
        | 8, -27, 6
        | 8, 21, 13
        | 8, 12, 51
        | 9, 8, 27
        | 9, -4, 32
        | 9, 15, 21
        | 10, 12, 39
        | 10, 11, 14
        | 10, 7, 49
        | 10, 15, 19
        | 10, 10, 18
        | 11, 21, 47
        | 11, 5, 31
        | 12, 21, 41
        | 12, -8, 49
        | 13, -2, 29
        | 13, -48, 8
        | 13, 0, 19
        | 14, 0, 39
        | 14, -56, 19
        | 14, 1, 49
        | 14, 0, 17
        | 15, 2, 8
        | 15, -76, 36
        | 15, 10, 13
        | 16, -40, 2
        | 16, 2, 48
        | 16, 2, 50
        | 17, -78, 18
        | 17, 3, 49
        | 17, -102, 24
        | 18, 12, 14
        | 19, -86, 24
        | 19, -1, 39
        | 19, -100, 12
        | 19, 2, 18
        | 20, 23, 22
        | 20, 8, 10
        | 21, 4, 51
        | 21, -6, 35
        | 21, 18, 7
        | 21, 1, 12
        | 21, 0, 40
        | 21, -20, 32
        | 22, 0, 23
        | 23, 13, 43
        | 23, -63, 20
        | 23, -3, 24
        | 24, 4, 12
        | 24, 10, 17
        | 25, 15, 36
        | 25, -48, 30
        | 25, -57, 45
        | 26, 0, 47
        | 27, -22, 45
        | 27, -45, 4
        | 27, -3, 8
        | 27, 15, 37
        | 27, 20, 36
        | 28, -54, 8
        | 28, -2, 33
        | 29, 0, 35
        | 29, 6, 14
        | 30, 10, 47
        | 30, 1, 25
        | 30, 8, 17
        | 30, -52, 27
        | 31, 16, 26
        | 31, -17, 3
        | 31, 15, 47
        | 32, 8, 39
        | 32, 0, 51
        | 32, -2, 9
        | 32, 8, 37
        | 32, 4, 23
        | 33, 2, 38
        | 33, -1, 48
        | 33, -62, 28
        | 34, -6, 44
        | 34, -5, 5
        | 34, 2, 32
        | 34, 2, 49
        | 34, 5, 12
        | 34, 0, 26
        | 34, 11, 33
        | 35, -8, 7
        | 35, -87, 8
        | 35, 6, 19
        | 35, 17, 49
        | 35, -57, 6
        | 35, -3, 28
        | 36, 7, 6
        | 36, 3, 48
        | 36, -2, 49
        | 36, 5, 47
        | 36, 8, 38
        | 37, -40, 27
        | 37, 8, 15
        | 37, 3, 30
        | 37, -41, 4
        | 37, 6, 17
        | 38, 3, 48
        | 39, -63, 14
        | 39, -83, 41
        | 39, 5, 49
        | 39, 9, 17
        | 40, 6, 46
        | 40, 13, 16
        | 40, -5, 22
        | 40, 12, 27
        | 41, -2, 19
        | 41, 6, 10
        | 42, -1, 16
        | 42, -93, 46
        | 43, 5, 48
        | 43, -65, 22
        | 43, 3, 42
        | 43, 7, 16
        | 44, -4, 34
        | 44, 0, 9
        | 45, 21, 19
        | 45, 13, 51
        | 45, 0, 37
        | 45, 12, 25
        | 45, 6, 27
        | 45, 4, 7
        | 46, 13, 20
        | 46, 10, 22
        | 46, -1, 49
        | 47, 9, 52
        | 47, 0, 26
        | 48, 9, 52
        | 48, -90, 36
        | 48, -52, 38
        | 49, -77, 18
        | 49, -93, 41
        | 49, -50, 17
        | 49, -81, 14
        | 49, 10, 52
        | 49, -95, 12
        | 50, -48, 43
        | 50, 8, 52
        | 50, -73, 40
        | 50, -65, 42
        | 51, 7, 52 |];
